80
1589
40
0 2
0 3
0 6
0 8
0 11
0 13
0 16
0 17
0 20
0 21
0 24
0 25
0 31
0 32
0 34
0 35
0 36
0 37
0 39
0 42
0 44
0 45
0 55
0 56
0 57
0 58
0 60
0 61
0 64
0 67
0 69
0 70
0 73
0 74
0 75
0 76
0 78
1 5
1 7
1 10
1 11
1 12
1 14
1 16
1 18
1 20
1 21
1 22
1 24
1 25
1 26
1 27
1 31
1 34
1 36
1 39
1 40
1 42
1 43
1 46
1 47
1 48
1 52
1 53
1 54
1 57
1 59
1 61
1 63
1 64
1 65
1 68
1 69
1 71
1 72
1 74
1 75
1 76
1 77
2 5
2 6
2 8
2 9
2 11
2 16
2 20
2 22
2 23
2 24
2 25
2 26
2 28
2 30
2 32
2 33
2 36
2 38
2 42
2 43
2 44
2 48
2 49
2 53
2 54
2 57
2 62
2 63
2 64
2 67
2 68
2 69
2 70
2 71
2 74
2 79
3 4
3 6
3 7
3 8
3 9
3 10
3 13
3 14
3 17
3 21
3 23
3 24
3 29
3 33
3 35
3 36
3 37
3 42
3 44
3 45
3 46
3 48
3 50
3 51
3 53
3 57
3 58
3 61
3 62
3 68
3 69
3 71
3 72
3 73
3 78
4 5
4 6
4 8
4 9
4 11
4 12
4 15
4 16
4 18
4 19
4 21
4 23
4 27
4 30
4 34
4 35
4 36
4 42
4 43
4 49
4 51
4 52
4 54
4 55
4 60
4 61
4 63
4 64
4 65
4 70
4 72
4 77
4 78
4 79
5 6
5 8
5 9
5 11
5 17
5 19
5 22
5 23
5 24
5 25
5 26
5 28
5 29
5 31
5 32
5 35
5 36
5 39
5 40
5 43
5 44
5 45
5 46
5 48
5 52
5 56
5 65
5 67
5 70
5 72
5 73
5 74
5 75
5 79
6 9
6 10
6 11
6 13
6 14
6 16
6 20
6 23
6 24
6 26
6 28
6 29
6 30
6 31
6 32
6 33
6 34
6 38
6 41
6 46
6 47
6 48
6 50
6 51
6 52
6 53
6 54
6 55
6 57
6 59
6 60
6 62
6 64
6 65
6 67
6 69
6 72
6 73
6 76
6 78
7 8
7 10
7 11
7 14
7 16
7 18
7 20
7 21
7 22
7 24
7 29
7 32
7 33
7 34
7 35
7 36
7 37
7 38
7 39
7 42
7 43
7 45
7 46
7 48
7 49
7 51
7 54
7 58
7 60
7 62
7 63
7 64
7 66
7 67
7 72
7 79
8 9
8 10
8 12
8 17
8 19
8 20
8 21
8 22
8 23
8 24
8 25
8 27
8 28
8 29
8 35
8 39
8 40
8 42
8 43
8 44
8 49
8 50
8 52
8 58
8 63
8 64
8 66
8 71
8 72
8 74
8 75
8 76
8 77
8 78
8 79
9 10
9 14
9 15
9 16
9 17
9 18
9 21
9 22
9 25
9 26
9 29
9 30
9 32
9 36
9 39
9 43
9 45
9 46
9 49
9 50
9 52
9 53
9 54
9 56
9 57
9 61
9 62
9 66
9 68
9 72
9 73
9 74
9 77
9 79
10 13
10 17
10 18
10 19
10 20
10 23
10 25
10 26
10 27
10 28
10 30
10 33
10 36
10 37
10 40
10 41
10 43
10 46
10 52
10 53
10 56
10 57
10 61
10 62
10 63
10 65
10 71
10 73
10 77
10 78
11 12
11 16
11 17
11 19
11 21
11 22
11 25
11 27
11 28
11 29
11 31
11 32
11 34
11 35
11 36
11 37
11 39
11 40
11 42
11 43
11 44
11 45
11 48
11 49
11 54
11 55
11 57
11 58
11 60
11 61
11 62
11 63
11 67
11 70
11 72
11 75
11 77
11 78
12 13
12 14
12 16
12 17
12 18
12 19
12 20
12 21
12 23
12 25
12 27
12 28
12 29
12 30
12 38
12 40
12 41
12 42
12 43
12 44
12 46
12 48
12 49
12 53
12 55
12 57
12 58
12 59
12 60
12 61
12 62
12 66
12 67
12 68
12 69
12 70
12 71
12 74
12 76
12 77
13 19
13 20
13 22
13 25
13 27
13 29
13 30
13 35
13 39
13 45
13 46
13 47
13 48
13 50
13 52
13 54
13 58
13 59
13 61
13 64
13 65
13 67
13 68
13 69
13 71
13 72
13 73
13 74
13 75
13 76
13 77
13 78
14 15
14 17
14 21
14 26
14 28
14 32
14 38
14 45
14 46
14 48
14 49
14 51
14 52
14 54
14 56
14 60
14 61
14 63
14 66
14 67
14 68
14 70
14 72
14 73
14 77
14 79
15 16
15 18
15 21
15 22
15 23
15 24
15 26
15 27
15 29
15 30
15 31
15 34
15 35
15 36
15 39
15 40
15 41
15 46
15 47
15 50
15 54
15 55
15 56
15 57
15 58
15 59
15 61
15 63
15 65
15 66
15 68
15 72
15 75
15 76
15 77
15 78
15 79
16 18
16 20
16 21
16 22
16 23
16 25
16 26
16 28
16 31
16 32
16 33
16 34
16 40
16 42
16 43
16 45
16 46
16 49
16 50
16 53
16 54
16 55
16 59
16 61
16 62
16 63
16 65
16 66
16 67
16 68
16 70
16 71
16 72
16 73
16 75
17 18
17 19
17 21
17 22
17 24
17 26
17 30
17 33
17 34
17 35
17 38
17 39
17 41
17 43
17 47
17 48
17 49
17 53
17 54
17 58
17 64
17 65
17 67
17 69
17 71
17 72
17 74
17 75
17 76
17 77
17 78
17 79
18 19
18 20
18 21
18 25
18 28
18 33
18 34
18 35
18 38
18 40
18 42
18 43
18 46
18 49
18 53
18 54
18 56
18 57
18 58
18 59
18 60
18 61
18 62
18 63
18 65
18 72
18 74
18 75
18 76
18 77
18 79
19 22
19 23
19 26
19 29
19 31
19 32
19 33
19 34
19 35
19 38
19 39
19 40
19 44
19 46
19 47
19 48
19 49
19 50
19 52
19 53
19 55
19 58
19 59
19 64
19 65
19 66
19 70
19 72
19 75
19 77
19 78
20 22
20 23
20 24
20 27
20 29
20 31
20 34
20 35
20 38
20 39
20 43
20 45
20 48
20 52
20 54
20 56
20 58
20 59
20 62
20 63
20 64
20 65
20 69
20 70
20 71
20 72
20 74
20 76
20 78
21 22
21 25
21 30
21 33
21 34
21 35
21 36
21 37
21 39
21 40
21 44
21 46
21 48
21 50
21 51
21 55
21 57
21 59
21 65
21 66
21 69
21 70
21 71
21 72
21 74
21 76
21 78
21 79
22 26
22 27
22 28
22 29
22 31
22 32
22 33
22 34
22 35
22 37
22 41
22 42
22 43
22 48
22 51
22 53
22 56
22 57
22 59
22 60
22 61
22 63
22 65
22 66
22 67
22 72
22 75
22 78
23 25
23 29
23 31
23 32
23 33
23 34
23 35
23 37
23 42
23 47
23 48
23 49
23 50
23 56
23 61
23 64
23 66
23 67
23 69
23 70
23 71
23 72
23 75
23 76
23 77
23 78
24 32
24 33
24 36
24 42
24 44
24 45
24 47
24 49
24 50
24 52
24 53
24 54
24 55
24 57
24 59
24 61
24 63
24 64
24 66
24 67
24 69
24 72
24 76
25 26
25 28
25 30
25 31
25 34
25 37
25 38
25 39
25 40
25 42
25 45
25 46
25 50
25 52
25 56
25 59
25 60
25 62
25 63
25 65
25 68
25 70
25 75
25 79
26 27
26 29
26 30
26 31
26 33
26 34
26 38
26 42
26 44
26 45
26 47
26 49
26 52
26 54
26 55
26 56
26 57
26 58
26 63
26 64
26 65
26 69
26 71
26 75
26 77
26 79
27 28
27 32
27 33
27 34
27 39
27 42
27 44
27 45
27 46
27 49
27 54
27 55
27 56
27 57
27 58
27 59
27 60
27 62
27 63
27 64
27 65
27 66
27 67
27 68
27 70
27 72
27 74
27 76
27 78
27 79
28 29
28 30
28 33
28 35
28 36
28 44
28 46
28 50
28 51
28 53
28 55
28 56
28 58
28 59
28 60
28 62
28 64
28 66
28 70
28 74
28 75
28 77
29 32
29 33
29 35
29 36
29 38
29 39
29 40
29 41
29 43
29 44
29 45
29 48
29 50
29 51
29 53
29 54
29 55
29 57
29 58
29 59
29 60
29 61
29 63
29 65
29 66
29 68
29 75
29 78
29 79
30 32
30 37
30 38
30 39
30 40
30 41
30 42
30 43
30 45
30 48
30 49
30 50
30 53
30 54
30 55
30 56
30 57
30 61
30 62
30 63
30 66
30 67
30 69
30 70
30 75
30 76
30 77
31 32
31 33
31 35
31 36
31 37
31 39
31 43
31 45
31 50
31 52
31 53
31 54
31 57
31 58
31 59
31 60
31 61
31 62
31 63
31 64
31 65
31 67
31 68
31 70
31 71
31 75
31 77
31 78
32 33
32 36
32 38
32 40
32 41
32 43
32 45
32 47
32 49
32 50
32 51
32 52
32 56
32 57
32 58
32 59
32 61
32 62
32 64
32 65
32 66
32 67
32 68
32 69
32 71
32 72
32 74
32 75
32 78
32 79
33 34
33 35
33 36
33 40
33 41
33 45
33 48
33 51
33 54
33 55
33 56
33 57
33 59
33 60
33 63
33 64
33 66
33 72
33 74
33 76
33 78
33 79
34 35
34 36
34 37
34 38
34 39
34 48
34 49
34 52
34 54
34 58
34 60
34 64
34 68
34 70
34 74
34 76
34 77
34 78
34 79
35 45
35 46
35 48
35 50
35 55
35 56
35 57
35 58
35 61
35 63
35 65
35 66
35 68
35 69
35 70
35 71
35 72
35 73
35 74
35 79
36 40
36 41
36 47
36 50
36 51
36 54
36 55
36 56
36 59
36 61
36 63
36 64
36 66
36 67
36 68
36 71
36 75
36 76
36 77
36 78
36 79
37 38
37 42
37 43
37 49
37 50
37 51
37 52
37 53
37 55
37 56
37 58
37 59
37 60
37 61
37 62
37 63
37 67
37 68
37 70
37 75
37 76
37 77
37 78
38 39
38 42
38 47
38 48
38 49
38 50
38 52
38 54
38 55
38 60
38 61
38 63
38 65
38 66
38 68
38 76
38 78
38 79
39 45
39 46
39 48
39 49
39 51
39 52
39 57
39 58
39 60
39 62
39 64
39 67
39 70
39 72
39 76
39 77
39 79
40 47
40 48
40 50
40 52
40 57
40 59
40 62
40 63
40 64
40 66
40 67
40 71
40 72
40 74
40 77
40 78
40 79
41 42
41 44
41 45
41 46
41 47
41 48
41 51
41 53
41 56
41 57
41 58
41 63
41 64
41 65
41 66
41 68
41 70
41 74
41 76
41 77
41 78
42 43
42 44
42 45
42 47
42 51
42 52
42 53
42 54
42 55
42 56
42 57
42 59
42 60
42 62
42 66
42 67
42 70
42 71
42 72
42 76
42 79
43 44
43 45
43 49
43 50
43 51
43 53
43 54
43 56
43 57
43 58
43 60
43 61
43 64
43 66
43 68
43 69
43 70
43 71
43 73
43 74
43 75
43 77
43 78
43 79
44 47
44 48
44 49
44 51
44 55
44 57
44 58
44 59
44 61
44 63
44 66
44 68
44 69
44 74
44 79
45 46
45 48
45 49
45 51
45 53
45 56
45 59
45 62
45 63
45 65
45 68
45 69
45 71
45 72
45 74
45 75
46 47
46 48
46 50
46 51
46 52
46 53
46 54
46 58
46 59
46 61
46 64
46 65
46 67
46 68
46 70
46 72
46 73
46 78
47 48
47 51
47 53
47 54
47 55
47 57
47 60
47 61
47 63
47 67
47 68
47 69
47 75
47 77
48 51
48 53
48 55
48 58
48 60
48 65
48 68
48 69
48 71
48 73
48 74
48 77
48 78
49 51
49 52
49 55
49 58
49 59
49 60
49 61
49 63
49 65
49 66
49 70
49 72
49 73
50 52
50 53
50 56
50 57
50 58
50 59
50 62
50 64
50 65
50 67
50 71
50 72
50 73
50 74
50 75
50 76
51 54
51 56
51 59
51 62
51 64
51 70
51 74
51 77
51 79
52 54
52 56
52 57
52 59
52 60
52 62
52 63
52 67
52 68
52 71
52 72
52 73
52 74
52 75
52 77
52 79
53 54
53 55
53 56
53 57
53 58
53 61
53 62
53 63
53 64
53 66
53 70
53 73
53 74
53 75
53 77
53 78
53 79
54 57
54 59
54 60
54 62
54 63
54 69
54 71
54 72
54 73
54 74
54 75
54 76
54 77
54 78
54 79
55 56
55 57
55 59
55 61
55 64
55 66
55 67
55 69
55 70
55 71
55 73
55 75
55 76
55 79
56 58
56 59
56 61
56 62
56 64
56 65
56 66
56 72
56 73
56 74
56 75
56 77
56 78
56 79
57 58
57 59
57 63
57 64
57 65
57 66
57 67
57 68
57 70
57 71
57 72
57 74
57 75
57 78
58 62
58 70
58 71
58 73
58 74
58 76
58 77
58 78
59 61
59 64
59 67
59 68
59 72
59 73
59 74
59 76
59 77
60 61
60 62
60 65
60 66
60 68
60 70
60 72
60 73
60 74
60 76
60 79
61 62
61 63
61 67
61 69
61 70
61 71
61 72
61 74
61 75
61 76
61 77
61 78
62 64
62 65
62 68
62 70
62 72
62 73
62 74
62 75
62 78
63 64
63 67
63 69
63 70
63 71
63 72
63 73
63 76
63 77
63 78
63 79
64 68
64 70
64 71
64 75
64 76
64 79
65 68
65 69
65 72
65 75
65 76
65 78
65 79
66 68
66 69
66 77
66 78
66 79
67 68
67 69
67 71
67 72
67 75
67 79
68 70
68 73
68 75
68 76
68 78
69 70
69 71
69 72
69 73
69 74
69 75
69 79
70 73
70 76
70 77
70 78
71 75
71 76
71 79
72 74
72 75
72 76
73 74
73 76
73 78
74 76
74 77
74 78
74 79
76 78
76 79
77 78
78 79
11 18
13 71
55 65
56 67
39 43
3 5
17 78
29 48
23 79
61 62
6 40
8 52
46 57
28 34
37 54
20 25
64 73
1 27
2 24
9 16
42 45
59 75
58 69
0 41
26 66
15 63
30 49
35 70
36 44
38 77
14 32
22 74
47 51
12 50
19 72
7 60
10 33
31 53
21 68
4 76
